NAME : A-n32-k5
COMMENT : (Augerat et al, Min no of trucks: 5, Optimal value: 784)
TYPE : CVRP
DIMENSION : 32
EDGE_WEIGHT_TYPE : EUC_2D
CAPACITY : 100
NODE_COORD_SECTION
1 82 76
2 96 44
3 50 5 
4 49 8 
5 13 7 
6 29 89
7 58 30
8 84 39
9 14 24
10 2 39
11 3 82
12 5 10
13 98 52
14 84 25
15 61 59
16 1 65
17 88 51
18 91 2 
19 19 32
20 93 3 
21 50 93
22 98 14
23 46 42
24 45 33
25 25 85
26 84 95
27 27 38
28 10 71
29 21 5 
30 40 5 
31 30 15
32 23 20
DEMAND_SECTION
1 0
2 19
3 21
4 6
5 19
6 7
7 12
8 17
9 6
10 16
11 8
12 11
13 18
14 15
15 14
16 23
17 26
18 8
19 6
20 18
21 16
22 25
23 13
24 21
25 12
26 19
27 10
28 9
29 25
30 15
31 7
32 13
DEPOT_SECTION
1
-1
EOF
