NAME : A-n53-k7
COMMENT : (Augerat et al, Min no of trucks: 7, Optimal value: 1010)
TYPE : CVRP
DIMENSION : 53
EDGE_WEIGHT_TYPE : EUC_2D
CAPACITY : 100
NODE_COORD_SECTION
1 50 50
2 96 44
3 50 5
4 49 8
5 13 7
6 29 89
7 58 30
8 84 39
9 14 24
10 2 39
11 3 82
12 5 10
13 98 52
14 84 25
15 61 59
16 1 65
17 88 51
18 91 2
19 19 32
20 93 3
21 50 93
22 98 14
23 46 42
24 45 33
25 25 85
26 84 95
27 27 38
28 10 71
29 21 5
30 40 5
31 30 15
32 23 20
33 75 80
34 12 90
35 65 35
36 32 45
37 88 15
38 42 68
39 18 55
40 90 70
41 55 12
42 70 88
43 28 62
44 82 45
45 38 22
46 15 80
47 62 10
48 95 35
49 48 78
50 22 92
51 78 58
52 35 18
53 60 85
DEMAND_SECTION
1 0
2 15
3 18
4 12
5 22
6 9
7 14
8 11
9 19
10 8
11 16
12 20
13 13
14 17
15 10
16 21
17 12
18 25
19 7
20 14
21 18
22 9
23 23
24 11
25 15
26 13
27 20
28 8
29 16
30 12
31 19
32 10
33 24
34 11
35 15
36 8
37 17
38 21
39 9
40 13
41 16
42 12
43 20
44 14
45 18
46 7
47 22
48 10
49 15
50 19
51 11
52 13
53 17
DEPOT_SECTION
1
-1
EOF
