NAME : A-n80-k10
COMMENT : (Augerat et al, Min no of trucks: 10, Optimal value: 1763)
TYPE : CVRP
DIMENSION : 80
EDGE_WEIGHT_TYPE : EUC_2D
CAPACITY : 100
NODE_COORD_SECTION
1 50 50
2 96 44
3 50 5
4 49 8
5 13 7
6 29 89
7 58 30
8 84 39
9 14 24
10 2 39
11 3 82
12 5 10
13 98 52
14 84 25
15 61 59
16 1 65
17 88 51
18 91 2
19 19 32
20 93 3
21 50 93
22 98 14
23 46 42
24 45 33
25 25 85
26 84 95
27 27 38
28 10 71
29 21 5
30 40 5
31 30 15
32 23 20
33 75 80
34 12 90
35 65 35
36 32 45
37 88 15
38 42 68
39 18 55
40 90 70
41 55 12
42 70 88
43 28 62
44 82 45
45 38 22
46 15 80
47 62 10
48 95 35
49 48 78
50 22 92
51 78 58
52 35 18
53 60 85
54 10 15
55 85 90
56 45 60
57 72 25
58 30 75
59 92 40
60 15 35
61 68 72
62 40 90
63 80 12
64 25 50
65 58 82
66 95 65
67 35 30
68 12 68
69 78 32
70 52 45
71 88 85
72 20 82
73 62 50
74 42 15
75 15 95
76 90 20
77 38 70
78 70 10
79 82 75
80 28 12
DEMAND_SECTION
1 0
2 12
3 15
4 18
5 9
6 22
7 14
8 11
9 16
10 8
11 19
12 13
13 17
14 10
15 21
16 15
17 12
18 20
19 7
20 14
21 18
22 11
23 23
24 9
25 16
26 13
27 19
28 8
29 15
30 12
31 17
32 10
33 22
34 11
35 14
36 8
37 16
38 20
39 9
40 13
41 15
42 12
43 18
44 14
45 17
46 7
47 21
48 10
49 16
50 19
51 11
52 13
53 17
54 14
55 18
56 9
57 15
58 12
59 20
60 8
61 16
62 11
63 19
64 13
65 17
66 10
67 22
68 15
69 12
70 18
71 7
72 14
73 19
74 11
75 21
76 9
77 16
78 13
79 17
80 10
DEPOT_SECTION
1
-1
EOF
